r = [
0,36,35,14,14,20,7,12,4,15,26,2,31,19,18,27,11,6,19,7,13,2,18,23,23,14,0
];
p = [
0,30,24,15,11,17,12,8,10,15,5,17,17,7,17,4,16,7,6,21,8,15,16,28,20,30,0
];
e = [
0,10,19,13,6,19,3,5,13,14,13,13,18,10,15,10,15,19,13,2,1,10,18,9,19,19,0
];
d = [
0,358,439,393,437,206,422,510,283,276,280,251,399,316,517,252,372,451,202,371,341,200,281,458,500,379,532
];
d_bar = [
0,385,461,407,447,221,433,517,292,290,285,266,414,322,532,256,386,457,207,390,348,214,295,483,518,406,532
];
w = [
0,0.37037037,0.863636364,0.928571429,0.6,1.266666667,0.272727273,0.714285714,1.444444444,1,2.6,0.866666667,1.2,1.666666667,1,2.5,1.071428571,3.166666667,2.6,0.105263158,0.142857143,0.714285714,1.285714286,0.36,1.055555556,0.703703704,0
];
